proyfinal/src/viki/013/experimentInOfficeAgust.take6.output/7e4e2d59-05df-4530-a90d-035fb28db8b8.als.out
Reading from standard input... Use '--help' for help.
============================[ Problem Statistics ]=============================
|                                                                             |
|  Number of variables:         87638                                         |
|  Number of clauses:          161767                                         |
|  Parse time:                   0.03 s                                       |
|                                                                             |
============================[ Search Statistics ]==============================
| Conflicts |          ORIGINAL         |          LEARNT          | Progress |
|           |    Vars  Clauses Literals |    Limit  Clauses Lit/Cl |          |
===============================================================================
|       100 |   63269   108326   270835 |    39719      100     10 | 27.806 % |
|       250 |   63269   108326   270835 |    43691      250     29 | 27.807 % |
|       475 |   63268   108323   270829 |    48060      474     97 | 27.808 % |
|       812 |   63250   108253   270660 |    52866      810     86 | 27.828 % |
|      1318 |   63250   108253   270660 |    58153     1316     86 | 27.828 % |
|      2077 |   63250   108253   270660 |    63968     2075     90 | 27.828 % |
|      3216 |   63230   108169   270467 |    70365     3212     94 | 27.851 % |
|      4924 |   63210   108091   270286 |    77402     4918     96 | 27.874 % |
|      7486 |   63133   107873   269782 |    85142     7477     96 | 27.962 % |
|     11330 |   63030   107373   268581 |    93656    11311     87 | 28.079 % |
===============================================================================
restarts              : 60
conflicts             : 13640          (5805 /sec)
decisions             : 47813          (0.00 % random) (20348 /sec)
propagations          : 21362268       (9091081 /sec)
conflict literals     : 1153000        (54.15 % deleted)
Memory used           : 31.90 MB
CPU time              : 2.3498 s

INDETERMINATE
